% demand
num_movements = 31;
loading_factor = [1350, 1000, 1650, 1850, 1150, 1150, 1400, 1600, 1950, 2000, 900, 1300, 950, 1400, 1450, 1600, 1000, 1500, 1500, 1950, 1100, 850, 1400, 1400, 1450, 1350, 850, 1750, 1500, 1450, 1850];
pickup_time = [0, 0, 0, 0, 0, 1, 1, 1, 3, 3, 4, 4, 5, 5, 5, 6, 6, 6, 8, 8, 8, 8, 9, 9, 9, 9, 9, 11, 11, 11, 13];
delivery_time = [2, 1, 1, 1, 6, 3, 3, 3, 5, 4, 7, 5, 6, 6, 6, 9, 8, 7, 9, 9, 9, 9, 11, 12, 11, 11, 11, 13, 13, 13, 14];

% transporter definition
total_capacity = 7000;
num_decks = 3;
capacity = [3000, 1000, 3000];

% ways out of decks
num_ways_out = 1;
paths_out = array3d(decks, ways_out, decks, [
% ways out of deck d1
2, 3, 0, 

% ways out of deck d2
3, 0, 0, 

% ways out of deck d3
0, 0, 0,	

]);

